32	0

0	2	2	3
8	2	4	5
9	2	4	5
6	2	6	7
9	1	6
8	1	8
5	1	8
9	1	9
2	1	10
4	2	11	12
10	2	13	14
2	2	13	14
8	1	15
10	1	15
9	2	16	17
8	1	18
6	1	18
6	1	19
1	2	20	21
7	1	23
2	2	22	23
8	2	24	25
2	2	24	25
6	1	26
9	1	26
1	1	27
6	2	28	29
6	2	30	31
3	2	30	31
8	1	32
9	1	32
0	0
